CMD:
./solvers/bin/cadical --plain --no-reduce -t 1600 ./data/cnfs//qspiflash_dualflexpress_divfive-p092/qspiflash_dualflexpress_divfive-p092.18.cnf

c --- [ banner ] -------------------------------------------------------------
c 
c CaDiCaL SAT Solver
c Copyright (c) 2016-2024
c A. Biere, M. Fleury, N. Froleyks, K. Fazekas, F. Pollitt, T. Faller
c JKU Linz, University of Freiburg, TU Wien
c 
c Version 2.1.3 5296d3d2a9bf48c154ab2acb5e44625776d821bf
c g++ (Gentoo 12.3.1_p20230526 p2) 12.3.1 20230526 -Wall -Wextra -O3 -DNDEBUG
c Sat Aug 9 07:26:21 PDT 2025 Linux cedar2.int.cedar.computecanada.ca 5.14.0-362.24.2.el9_3.x86_64 x86_64
c 
c --- [ limit ] --------------------------------------------------------------
c 
c setting time limit to 1600 seconds real time (due to '-t 1600')
c 
c --- [ parsing input ] ------------------------------------------------------
c 
c reading DIMACS file from './data/cnfs//qspiflash_dualflexpress_divfive-p092/qspiflash_dualflexpress_divfive-p092.18.cnf'
c opening file to read './data/cnfs//qspiflash_dualflexpress_divfive-p092/qspiflash_dualflexpress_divfive-p092.18.cnf'
c found 'p cnf 56776 164670' header
c parsed 164670 clauses in 0.02 seconds process time
c 
c --- [ options ] ------------------------------------------------------------
c 
c   --compact=false                (different from default 'true')
c   --decompose=false              (different from default 'true')
c   --deduplicate=false            (different from default 'true')
c   --elim=false                   (different from default 'true')
c   --probe=false                  (different from default 'true')
c   --reduce=false                 (different from default 'true')
c   --subsume=false                (different from default 'true')
c   --ternary=false                (different from default 'true')
c   --transred=false               (different from default 'true')
c   --vivify=false                 (different from default 'true')
c 
c --- [ solving ] ------------------------------------------------------------
c 
c time measured in process time since initialization
c 
c  seconds  reductions  redundant  irredundant
c         MB    restarts       trail       variables
c          level   conflicts       glue         remaining
c 
c *  0.02 28  0 0   0    0    0  0% 0 148019 46290 82%
c {  0.03 28  0 0   0    0    0  0% 0 148019 46290 82%
c i  0.03 28 31 0   0   11    9 22% 2 148019 46270 81%
c i  0.04 28 26 0   0   16   13 22% 2 148019 46263 81%
c i  0.04 29 16 0   0   41   34 22% 2 148019 46247 81%
c i  0.04 29 15 0   0   50   42 23% 2 148019 46235 81%
c i  0.04 29 14 0   0   57   47 23% 2 148019 46230 81%
c i  0.04 29 14 0   0   58   47 23% 2 148019 46202 81%
c i  0.04 29 13 0   9  106   86 24% 3 148019 46172 81%
c i  0.05 29 17 0  11  203  173 29% 3 148019 45975 81%
c i  0.05 29 17 0  11  219  186 29% 3 148019 45899 81%
c i  0.05 29 16 0  17  259  219 28% 3 148019 45769 81%
c i  0.05 29 15 0  18  264  222 28% 3 148019 45757 81%
c i  0.05 29 15 0  18  265  222 28% 3 148019 45747 81%
c i  0.05 29 15 0  18  267  223 28% 3 148019 45705 81%
c i  0.05 29 15 0  18  270  225 28% 3 148019 45702 80%
c i  0.06 29 17 0  18  399  341 31% 3 148019 45698 80%
c i  0.07 29 16 0  23  471  406 31% 3 148019 45694 80%
c i  0.07 29 14 0  40  620  538 30% 3 148019 45687 80%
c i  0.08 29 14 0  51  691  595 30% 3 148019 45686 80%
c 
c  seconds  reductions  redundant  irredundant
c         MB    restarts       trail       variables
c          level   conflicts       glue         remaining
c 
c i  0.08 29 15 0  54  754  650 29% 3 148019 45676 80%
c i  0.08 29 15 0  58  852  740 29% 3 148019 45675 80%
c i  0.08 29 14 0  60  872  757 29% 3 148019 45415 80%
c }  0.09 29 14 0  60  906  781 29% 3 148019 45317 80%
c 0  0.09 29 14 0  60  906  781 29% 3 148019 45317 80%
c 
c --- [ result ] -------------------------------------------------------------
c 
s UNSATISFIABLE
c 
c --- [ run-time profiling ] -------------------------------------------------
c 
c process time taken by individual solving procedures
c (percentage relative to process time for solving)
c 
c         0.06   99.86% search
c         0.05   84.33% unstable
c         0.02   39.69% parse
c         0.01   15.49% lucky
c         0.00    0.00% simplify
c   =================================
c         0.06   71.30% solve
c 
c last line shows process time for solving
c (percentage relative to total process time)
c 
c --- [ statistics ] ---------------------------------------------------------
c 
c chronological:               396        43.71 %  of conflicts
c conflicts:                   906     14817.24    per second
c decisions:                  1922     31433.48    per second
c fixed:                     11425        20.12 %  of all variables
c learned:                     861        95.03 %  per conflict
c learned_lits:               8913       100.00 %  learned literals
c minimized:                     0         0.00 %  learned literals
c shrunken:                   1539        17.27 %  learned literals
c minishrunken:               1116        12.52 %  learned literals
c otfs:                         13         1.43 %  of conflict
c propagations:            1269536        20.76 M  per second
c restarts:                     60        15.10    interval
c subsumed:                     58         0.04 %  of all clauses
c strengthened:                 13         0.01 %  of all clauses
c 
c seconds are measured in process time for solving
c 
c --- [ resources ] ----------------------------------------------------------
c 
c total process time since initialization:         0.09    seconds
c total real time since initialization:            0.09    seconds
c maximum resident set size of process:           29.33    MB
c 
c --- [ shutting down ] ------------------------------------------------------
c 
c exit 20
